2456.07
0 11 9 3 1 4 2 7 0
0 25 16 24 19 17 15 31 29 14 8 6 10 13 0
0 22 33 23 27 30 34 18 26 20 21 32 53 50 39 35 0
0 46 28 41 36 42 37 38 40 72 0
0 54 63 51 45 44 48 43 49 47 0
0 55 60 57 56 59 61 62 58 83 64 66 52 84 67 68 73 76 0
0 77 81 82 79 78 65 74 71 89 97 91 94 90 86 69 70 0
0 80 95 92 75 0
0 87 85 88 98 0
0 93 96 12 99 0
0 5 100 0
